problems/csplib-prob030/BalancedAcademicCurriculumProblem-models/compact/O0/minion/model-bacp-23-solution000001.eprime-solution
language ESSENCE' 1.0

letting curr_Function1D be
        [10, 10, 9, 9, 1, 9, 1, 1, 9, 1, 8, 8, 7, 2, 7, 7, 7, 7, 7, 7, 1, 6, 6, 6, 5, 5, 5, 3, 4, 4, 4, 4, 2, 3, 1, 3,
         3, 2, 4, 1, 3, 3, 2, 2, 2, 2, 1, 2, 1, 1;
             int(1..50)]
