problems/csplib-prob030/BalancedAcademicCurriculumProblem-models/noch/O2/minion/model-bacp-23-solution000001.solution
language Essence 1.3

letting curr be
        function(1 --> 10, 2 --> 10, 3 --> 9, 4 --> 9, 5 --> 1, 6 --> 9, 7 --> 1, 8 --> 1, 9 --> 9, 10 --> 1, 11 --> 8,
                 12 --> 8, 13 --> 7, 14 --> 2, 15 --> 7, 16 --> 7, 17 --> 7, 18 --> 7, 19 --> 7, 20 --> 7, 21 --> 1,
                 22 --> 6, 23 --> 6, 24 --> 6, 25 --> 5, 26 --> 5, 27 --> 5, 28 --> 3, 29 --> 4, 30 --> 4, 31 --> 4,
                 32 --> 4, 33 --> 2, 34 --> 3, 35 --> 1, 36 --> 3, 37 --> 3, 38 --> 2, 39 --> 4, 40 --> 1, 41 --> 3,
                 42 --> 3, 43 --> 2, 44 --> 2, 45 --> 2, 46 --> 2, 47 --> 1, 48 --> 2, 49 --> 1, 50 --> 1)
